p wcnf 115 58 59 
1 -114 36 0 
1 -68 -96 0 
1 -47 -106 0 
1 -9 -43 0 
1 -3 -111 0 
1 16 -52 0 
1 70 -71 0 
1 2 93 0 
1 71 -36 0 
1 59 61 0 
1 -107 26 0 
1 108 15 0 
1 -26 -25 0 
1 104 7 0 
1 -98 69 0 
1 27 90 0 
1 106 26 0 
1 -5 19 0 
1 44 -23 0 
1 -4 49 0 
1 -30 -74 0 
1 -16 112 0 
1 -108 39 0 
1 104 14 0 
1 -63 -97 0 
1 57 3 0 
1 -85 68 0 
1 -61 -38 0 
1 101 113 0 
1 36 -21 0 
1 -67 39 0 
1 78 45 0 
1 -60 -41 0 
1 -51 -94 0 
1 -59 -30 0 
1 -109 10 0 
1 18 -101 0 
1 92 3 0 
1 -102 83 0 
1 62 107 0 
1 29 78 0 
1 -23 -6 0 
1 2 52 0 
1 -51 -101 0 
1 -103 39 0 
1 -38 -26 0 
1 17 -19 0 
1 73 -86 0 
1 54 15 0 
1 16 63 0 
1 43 69 0 
1 77 -84 0 
1 15 107 0 
1 -59 -49 0 
1 -10 -23 0 
1 -99 42 0 
1 8 20 0 
1 -2 58 0 
